(set-info :Origin "This instance was generated by: BanditFuzz-- an RL fuzzer for SMT solvers" )
(set-info :Author "Joe Scott, Fed Mora, Vijay Ganesh" )
(set-info :Contact "Joe Scott, joseph.scott@uwaterloo.ca")
(set-logic QF_BV)
(declare-const bool_0 Bool)
(declare-const bool_1 Bool)
(declare-const bool_2 Bool)
(declare-const bool_3 Bool)
(declare-const bool_4 Bool)
(declare-const bv_0 (_ BitVec 32))
(declare-const bv_1 (_ BitVec 32))
(declare-const bv_2 (_ BitVec 32))
(declare-const bv_3 (_ BitVec 32))
(declare-const bv_4 (_ BitVec 32))
(assert (bvsgt (bvxnor (bvashr #xf880557f  bv_0) (bvsrem bv_4 bv_2)) (bvor (bvurem bv_3 bv_1) (bvxor bv_2 #xe9553b25 ))))
(assert (bvule (bvashr (bvand #x8c8e6f5e  bv_2) (bvor bv_0 #x4e7412ba )) (bvsub (bvsmod bv_3 #x84bca937 ) (bvand bv_1 bv_4))))
(assert (bvsgt (bvadd (bvlshr bv_4 #x66632f82 ) (bvand #x9f0b6c02  #x25387e9f )) (bvlshr (bvnand #x9d4f1b41  bv_2) (bvurem #x02b0b1b8  bv_3))))
(assert (=> (bvuge (bvlshr #x096de288  #xfc50fd57 ) (bvxor bv_4 bv_0)) (or (and true bool_3) (bvsgt #xf64652c9  #xe6bfc7f9 ))))
(assert (bvsge (bvnand (bvmul #x94daf36e  bv_2) (bvurem #x5a100413  bv_2)) (bvashr (bvsdiv bv_1 bv_0) (bvurem bv_4 bv_4))))
(check-sat)
(exit)
